100 8
702 823
881 626
642 928
354 386
583 747
533 439
552 791
834 641
262 783
568 785
513 181
359 779
347 255
832 707
611 755
318 180
64 740
767 246
631 690
439 528
18 743
182 498
281 373
137 316
612 835
457 428
417 243
394 529
819 455
814 576
718 773
741 945
831 504
594 634
267 238
607 609
205 350
367 178
572 774
239 216
729 898
713 322
789 627
610 818
333 235
848 794
249 174
421 373
677 362
856 884
809 354
397 365
59 185
832 856
753 627
694 917
348 485
730 766
787 596
870 797
876 873
458 164
615 600
673 754
502 169
734 586
649 728
672 540
181 68
814 764
428 458
658 285
469 409
668 718
551 787
221 484
258 154
550 867
918 723
237 210
150 251
522 367
531 789
751 879
246 107
48 921
512 502
649 342
559 321
350 822
750 294
676 774
317 158
701 349
513 454
905 656
229 58
61 919
789 848
780 239
